21° run output:
{
    "Function": "kroB1000.tsp",
    "Problem dimension": [
        746,
        133,
        451,
        81,
        141,
        725,
        802,
        778,
        958,
        396,
        978,
        291,
        286,
        371,
        858,
        959,
        562,
        16,
        576,
        991,
        794,
        257,
        697,
        855,
        279,
        689,
        880,
        864,
        27,
        413,
        892,
        650,
        922,
        511,
        710,
        31,
        426,
        238,
        580,
        418,
        762,
        277,
        179,
        97,
        661,
        982,
        310,
        287,
        763,
        349,
        816,
        878,
        809,
        972,
        513,
        379,
        618,
        197,
        156,
        498,
        124,
        843,
        393,
        46,
        112,
        359,
        271,
        523,
        785,
        107,
        813,
        386,
        318,
        815,
        48,
        608,
        255,
        542,
        962,
        636,
        938,
        984,
        714,
        186,
        987,
        68,
        854,
        305,
        776,
        660,
        662,
        437,
        83,
        216,
        524,
        490,
        372,
        750,
        347,
        830,
        917,
        717,
        759,
        70,
        206,
        360,
        612,
        599,
        544,
        143,
        818,
        89,
        699,
        674,
        946,
        906,
        995,
        554,
        977,
        951,
        281,
        996,
        86,
        492,
        443,
        322,
        827,
        569,
        366,
        629,
        384,
        208,
        245,
        659,
        100,
        135,
        730,
        526,
        334,
        571,
        64,
        605,
        871,
        752,
        926,
        377,
        415,
        146,
        436,
        412,
        390,
        913,
        551,
        207,
        729,
        981,
        65,
        504,
        389,
        656,
        936,
        468,
        295,
        455,
        575,
        929,
        587,
        237,
        771,
        517,
        201,
        273,
        894,
        459,
        624,
        800,
        95,
        534,
        240,
        337,
        130,
        723,
        5,
        734,
        680,
        109,
        801,
        428,
        528,
        176,
        424,
        582,
        333,
        54,
        211,
        531,
        152,
        565,
        508,
        979,
        246,
        787,
        620,
        319,
        642,
        88,
        314,
        44,
        183,
        695,
        623,
        139,
        507,
        692,
        522,
        930,
        603,
        525,
        480,
        610,
        229,
        405,
        874,
        226,
        908,
        702,
        760,
        223,
        684,
        447,
        658,
        296,
        301,
        20,
        38,
        519,
        928,
        82,
        919,
        153,
        595,
        467,
        934,
        578,
        738,
        400,
        458,
        512,
        350,
        536,
        39,
        998,
        127,
        688,
        259,
        597,
        267,
        356,
        148,
        491,
        198,
        863,
        173,
        945,
        477,
        169,
        74,
        374,
        567,
        820,
        346,
        355,
        345,
        545,
        748,
        518,
        739,
        481,
        174,
        875,
        566,
        131,
        780,
        497,
        164,
        755,
        239,
        677,
        992,
        506,
        769,
        824,
        651,
        269,
        708,
        434,
        627,
        361,
        649,
        844,
        907,
        903,
        289,
        932,
        454,
        121,
        242,
        21,
        328,
        997,
        422,
        407,
        496,
        445,
        846,
        838,
        8,
        655,
        329,
        570,
        125,
        461,
        264,
        955,
        676,
        602,
        30,
        87,
        547,
        826,
        352,
        505,
        877,
        157,
        781,
        707,
        185,
        489,
        993,
        59,
        14,
        495,
        56,
        423,
        607,
        848,
        178,
        810,
        60,
        382,
        940,
        263,
        280,
        194,
        666,
        573,
        122,
        250,
        957,
        272,
        118,
        823,
        488,
        828,
        23,
        228,
        900,
        433,
        754,
        479,
        558,
        304,
        786,
        546,
        744,
        351,
        320,
        285,
        22,
        592,
        317,
        950,
        923,
        51,
        728,
        110,
        564,
        731,
        540,
        220,
        91,
        664,
        410,
        694,
        385,
        105,
        76,
        761,
        937,
        3,
        93,
        113,
        681,
        235,
        12,
        819,
        601,
        26,
        779,
        652,
        42,
        145,
        952,
        543,
        663,
        799,
        947,
        845,
        420,
        669,
        79,
        503,
        510,
        311,
        343,
        767,
        254,
        78,
        464,
        696,
        449,
        493,
        741,
        43,
        147,
        387,
        75,
        172,
        52,
        804,
        609,
        856,
        722,
        682,
        939,
        994,
        529,
        983,
        881,
        376,
        441,
        150,
        203,
        915,
        986,
        698,
        639,
        252,
        533,
        332,
        935,
        182,
        868,
        378,
        191,
        916,
        241,
        735,
        283,
        593,
        485,
        579,
        556,
        672,
        643,
        756,
        716,
        988,
        616,
        686,
        222,
        631,
        180,
        435,
        293,
        591,
        9,
        588,
        193,
        19,
        202,
        323,
        108,
        933,
        177,
        243,
        231,
        92,
        712,
        921,
        276,
        703,
        204,
        615,
        466,
        867,
        899,
        340,
        891,
        532,
        45,
        391,
        538,
        791,
        613,
        889,
        195,
        638,
        175,
        395,
        234,
        701,
        646,
        924,
        460,
        484,
        463,
        764,
        406,
        456,
        796,
        925,
        17,
        116,
        316,
        151,
        184,
        882,
        353,
        887,
        342,
        586,
        266,
        29,
        772,
        381,
        918,
        232,
        188,
        335,
        788,
        432,
        792,
        15,
        790,
        358,
        970,
        691,
        590,
        158,
        806,
        964,
        851,
        911,
        187,
        912,
        120,
        879,
        811,
        563,
        411,
        560,
        774,
        740,
        165,
        706,
        869,
        13,
        653,
        469,
        606,
        713,
        782,
        572,
        129,
        155,
        909,
        261,
        675,
        768,
        973,
        897,
        438,
        7,
        134,
        99,
        408,
        765,
        535,
        473,
        224,
        324,
        829,
        521,
        49,
        181,
        308,
        876,
        814,
        766,
        835,
        373,
        416,
        339,
        47,
        715,
        553,
        136,
        822,
        888,
        417,
        298,
        910,
        101,
        657,
        470,
        598,
        861,
        501,
        585,
        249,
        401,
        306,
        1,
        278,
        2,
        690,
        452,
        942,
        303,
        375,
        559,
        733,
        309,
        628,
        743,
        514,
        439,
        859,
        336,
        18,
        965,
        72,
        622,
        732,
        724,
        783,
        419,
        53,
        213,
        956,
        619,
        673,
        836,
        777,
        402,
        299,
        282,
        645,
        149,
        453,
        841,
        302,
        154,
        326,
        530,
        589,
        594,
        850,
        440,
        475,
        368,
        632,
        555,
        954,
        215,
        104,
        857,
        55,
        831,
        537,
        668,
        457,
        720,
        69,
        114,
        548,
        190,
        705,
        842,
        348,
        128,
        10,
        883,
        248,
        989,
        832,
        718,
        62,
        550,
        159,
        865,
        98,
        596,
        817,
        758,
        367,
        132,
        483,
        966,
        963,
        331,
        363,
        693,
        885,
        219,
        920,
        450,
        96,
        25,
        268,
        258,
        515,
        852,
        117,
        370,
        611,
        274,
        614,
        330,
        539,
        683,
        757,
        404,
        425,
        685,
        61,
        961,
        630,
        403,
        803,
        975,
        581,
        773,
        890,
        895,
        687,
        50,
        344,
        327,
        288,
        0,
        641,
        499,
        251,
        898,
        126,
        775,
        474,
        502,
        568,
        236,
        94,
        167,
        140,
        635,
        931,
        260,
        807,
        990,
        577,
        189,
        80,
        338,
        914,
        751,
        71,
        409,
        847,
        462,
        357,
        200,
        472,
        414,
        233,
        388,
        430,
        621,
        383,
        244,
        431,
        944,
        968,
        487,
        557,
        90,
        719,
        4,
        784,
        11,
        949,
        209,
        953,
        397,
        111,
        398,
        640,
        644,
        793,
        162,
        821,
        137,
        292,
        654,
        227,
        66,
        214,
        648,
        478,
        362,
        837,
        704,
        727,
        102,
        665,
        726,
        160,
        789,
        24,
        253,
        960,
        870,
        798,
        985,
        600,
        163,
        584,
        225,
        294,
        444,
        770,
        265,
        256,
        394,
        839,
        671,
        6,
        709,
        166,
        561,
        106,
        57,
        520,
        486,
        138,
        284,
        742,
        262,
        833,
        634,
        392,
        795,
        834,
        119,
        210,
        446,
        297,
        980,
        574,
        549,
        976,
        626,
        737,
        168,
        667,
        974,
        886,
        893,
        290,
        67,
        902,
        73,
        604,
        904,
        321,
        170,
        40,
        471,
        745,
        465,
        312,
        448,
        797,
        941,
        369,
        275,
        948,
        37,
        123,
        442,
        421,
        300,
        711,
        325,
        427,
        35,
        199,
        967,
        866,
        943,
        365,
        221,
        217,
        901,
        354,
        32,
        36,
        142,
        77,
        753,
        33,
        860,
        103,
        380,
        516,
        494,
        212,
        670,
        196,
        171,
        700,
        849,
        482,
        115,
        853,
        971,
        247,
        617,
        808,
        63,
        552,
        873,
        509,
        927,
        805,
        230,
        28,
        58,
        825,
        34,
        905,
        341,
        205,
        872,
        527,
        307,
        583,
        144,
        721,
        678,
        884,
        679,
        218,
        840,
        313,
        625,
        999,
        192,
        364,
        84,
        85,
        161,
        637,
        749,
        647,
        736,
        399,
        41,
        270,
        500,
        862,
        812,
        896,
        633,
        969,
        315,
        541,
        747,
        429,
        476
    ],
    "Global Optimum": 0,
    "Algorithm": "Genetic algorithm",
    "Parameters": {
        "population": 30,
        "offspring": 30,
        "mutation probability": 0.001,
        "crossover probability": 0.9
    },
    "Fitness": 1374864,
    "Solution": [
        746,
        133,
        451,
        81,
        141,
        725,
        802,
        778,
        958,
        396,
        978,
        291,
        286,
        371,
        858,
        959,
        562,
        16,
        576,
        991,
        794,
        257,
        697,
        855,
        279,
        689,
        880,
        864,
        27,
        413,
        892,
        650,
        922,
        511,
        710,
        31,
        426,
        238,
        580,
        418,
        762,
        277,
        179,
        97,
        661,
        982,
        310,
        287,
        763,
        349,
        816,
        878,
        809,
        972,
        513,
        379,
        618,
        197,
        156,
        498,
        124,
        843,
        393,
        46,
        112,
        359,
        271,
        523,
        785,
        107,
        813,
        386,
        318,
        815,
        48,
        608,
        255,
        542,
        962,
        636,
        938,
        984,
        714,
        186,
        987,
        68,
        854,
        305,
        776,
        660,
        662,
        437,
        83,
        216,
        524,
        490,
        372,
        750,
        347,
        830,
        917,
        717,
        759,
        70,
        206,
        360,
        612,
        599,
        544,
        143,
        818,
        89,
        699,
        674,
        946,
        906,
        995,
        554,
        977,
        951,
        281,
        996,
        86,
        492,
        443,
        322,
        827,
        569,
        366,
        629,
        384,
        208,
        245,
        659,
        100,
        135,
        730,
        526,
        334,
        571,
        64,
        605,
        871,
        752,
        926,
        377,
        415,
        146,
        436,
        412,
        390,
        913,
        551,
        207,
        729,
        981,
        65,
        504,
        389,
        656,
        936,
        468,
        295,
        455,
        575,
        929,
        587,
        237,
        771,
        517,
        201,
        273,
        894,
        459,
        624,
        800,
        95,
        534,
        240,
        337,
        130,
        723,
        5,
        734,
        680,
        109,
        801,
        428,
        528,
        176,
        424,
        582,
        333,
        54,
        211,
        531,
        152,
        565,
        508,
        979,
        246,
        787,
        620,
        319,
        642,
        88,
        314,
        44,
        183,
        695,
        623,
        139,
        507,
        692,
        522,
        930,
        603,
        525,
        480,
        610,
        229,
        405,
        874,
        226,
        908,
        702,
        760,
        223,
        684,
        447,
        658,
        296,
        301,
        20,
        38,
        519,
        928,
        82,
        919,
        153,
        595,
        467,
        934,
        578,
        738,
        400,
        458,
        512,
        350,
        536,
        39,
        998,
        127,
        688,
        259,
        597,
        267,
        356,
        148,
        491,
        198,
        863,
        173,
        945,
        477,
        169,
        74,
        374,
        567,
        820,
        346,
        355,
        345,
        545,
        748,
        518,
        739,
        481,
        174,
        875,
        566,
        131,
        780,
        497,
        164,
        755,
        239,
        677,
        992,
        506,
        769,
        824,
        651,
        269,
        708,
        434,
        627,
        361,
        649,
        844,
        907,
        903,
        289,
        932,
        454,
        121,
        242,
        21,
        328,
        997,
        422,
        407,
        496,
        445,
        846,
        838,
        8,
        655,
        329,
        570,
        125,
        461,
        264,
        955,
        676,
        602,
        30,
        87,
        547,
        826,
        352,
        505,
        877,
        157,
        781,
        707,
        185,
        489,
        993,
        59,
        14,
        495,
        56,
        423,
        607,
        848,
        178,
        810,
        60,
        382,
        940,
        263,
        280,
        194,
        666,
        573,
        122,
        250,
        957,
        272,
        118,
        823,
        488,
        828,
        23,
        228,
        900,
        433,
        754,
        479,
        558,
        304,
        786,
        546,
        744,
        351,
        320,
        285,
        22,
        592,
        317,
        950,
        923,
        51,
        728,
        110,
        564,
        731,
        540,
        220,
        91,
        664,
        410,
        694,
        385,
        105,
        76,
        761,
        937,
        3,
        93,
        113,
        681,
        235,
        12,
        819,
        601,
        26,
        779,
        652,
        42,
        145,
        952,
        543,
        663,
        799,
        947,
        845,
        420,
        669,
        79,
        503,
        510,
        311,
        343,
        767,
        254,
        78,
        464,
        696,
        449,
        493,
        741,
        43,
        147,
        387,
        75,
        172,
        52,
        804,
        609,
        856,
        722,
        682,
        939,
        994,
        529,
        983,
        881,
        376,
        441,
        150,
        203,
        915,
        986,
        698,
        639,
        252,
        533,
        332,
        935,
        182,
        868,
        378,
        191,
        916,
        241,
        735,
        283,
        593,
        485,
        579,
        556,
        672,
        643,
        756,
        716,
        988,
        616,
        686,
        222,
        631,
        180,
        435,
        293,
        591,
        9,
        588,
        193,
        19,
        202,
        323,
        108,
        933,
        177,
        243,
        231,
        92,
        712,
        921,
        276,
        703,
        204,
        615,
        466,
        867,
        899,
        340,
        891,
        532,
        45,
        391,
        538,
        791,
        613,
        889,
        195,
        638,
        175,
        395,
        234,
        701,
        646,
        924,
        460,
        484,
        463,
        764,
        406,
        456,
        796,
        925,
        17,
        116,
        316,
        151,
        184,
        882,
        353,
        887,
        342,
        586,
        266,
        29,
        772,
        381,
        918,
        232,
        188,
        335,
        788,
        432,
        792,
        15,
        790,
        358,
        970,
        691,
        590,
        158,
        806,
        964,
        851,
        911,
        187,
        912,
        120,
        879,
        811,
        563,
        411,
        560,
        774,
        740,
        165,
        706,
        869,
        13,
        653,
        469,
        606,
        713,
        782,
        572,
        129,
        155,
        909,
        261,
        675,
        768,
        973,
        897,
        438,
        7,
        134,
        99,
        408,
        765,
        535,
        473,
        224,
        324,
        829,
        521,
        49,
        181,
        308,
        876,
        814,
        766,
        835,
        373,
        416,
        339,
        47,
        715,
        553,
        136,
        822,
        888,
        417,
        298,
        910,
        101,
        657,
        470,
        598,
        861,
        501,
        585,
        249,
        401,
        306,
        1,
        278,
        2,
        690,
        452,
        942,
        303,
        375,
        559,
        733,
        309,
        628,
        743,
        514,
        439,
        859,
        336,
        18,
        965,
        72,
        622,
        732,
        724,
        783,
        419,
        53,
        213,
        956,
        619,
        673,
        836,
        777,
        402,
        299,
        282,
        645,
        149,
        453,
        841,
        302,
        154,
        326,
        530,
        589,
        594,
        850,
        440,
        475,
        368,
        632,
        555,
        954,
        215,
        104,
        857,
        55,
        831,
        537,
        668,
        457,
        720,
        69,
        114,
        548,
        190,
        705,
        842,
        348,
        128,
        10,
        883,
        248,
        989,
        832,
        718,
        62,
        550,
        159,
        865,
        98,
        596,
        817,
        758,
        367,
        132,
        483,
        966,
        963,
        331,
        363,
        693,
        885,
        219,
        920,
        450,
        96,
        25,
        268,
        258,
        515,
        852,
        117,
        370,
        611,
        274,
        614,
        330,
        539,
        683,
        757,
        404,
        425,
        685,
        61,
        961,
        630,
        403,
        803,
        975,
        581,
        773,
        890,
        895,
        687,
        50,
        344,
        327,
        288,
        0,
        641,
        499,
        251,
        898,
        126,
        775,
        474,
        502,
        568,
        236,
        94,
        167,
        140,
        635,
        931,
        260,
        807,
        990,
        577,
        189,
        80,
        338,
        914,
        751,
        71,
        409,
        847,
        462,
        357,
        200,
        472,
        414,
        233,
        388,
        430,
        621,
        383,
        244,
        431,
        944,
        968,
        487,
        557,
        90,
        719,
        4,
        784,
        11,
        949,
        209,
        953,
        397,
        111,
        398,
        640,
        644,
        793,
        162,
        821,
        137,
        292,
        654,
        227,
        66,
        214,
        648,
        478,
        362,
        837,
        704,
        727,
        102,
        665,
        726,
        160,
        789,
        24,
        253,
        960,
        870,
        798,
        985,
        600,
        163,
        584,
        225,
        294,
        444,
        770,
        265,
        256,
        394,
        839,
        671,
        6,
        709,
        166,
        561,
        106,
        57,
        520,
        486,
        138,
        284,
        742,
        262,
        833,
        634,
        392,
        795,
        834,
        119,
        210,
        446,
        297,
        980,
        574,
        549,
        976,
        626,
        737,
        168,
        667,
        974,
        886,
        893,
        290,
        67,
        902,
        73,
        604,
        904,
        321,
        170,
        40,
        471,
        745,
        465,
        312,
        448,
        797,
        941,
        369,
        275,
        948,
        37,
        123,
        442,
        421,
        300,
        711,
        325,
        427,
        35,
        199,
        967,
        866,
        943,
        365,
        221,
        217,
        901,
        354,
        32,
        36,
        142,
        77,
        753,
        33,
        860,
        103,
        380,
        516,
        494,
        212,
        670,
        196,
        171,
        700,
        849,
        482,
        115,
        853,
        971,
        247,
        617,
        808,
        63,
        552,
        873,
        509,
        927,
        805,
        230,
        28,
        58,
        825,
        34,
        905,
        341,
        205,
        872,
        527,
        307,
        583,
        144,
        721,
        678,
        884,
        679,
        218,
        840,
        313,
        625,
        999,
        192,
        364,
        84,
        85,
        161,
        637,
        749,
        647,
        736,
        399,
        41,
        270,
        500,
        862,
        812,
        896,
        633,
        969,
        315,
        541,
        747,
        429,
        476
    ],
    "Nb of functions evaluations": 200010,
    "Computational time in seconds": 2988.4020421504974,
    "Stopping criterion in evaluations": 200000
}